
Gurobi 9.5.0 (linux64) logging started Fri Dec  8 09:14:02 2023

Set parameter LogFile to value "/lustre1/scratch/348/vsc34888/JointResearch/05.Models/06.Benchmarking/F.Representative_days_based_on_Line_Benefit_NN_OC_fy_1/RTS24_mod1_ByStages_nc90/openStarNet_RTS24_mod1_ByStages_nc90.log"
Set parameter Method to value 2
Set parameter MIPFocus to value 1
Set parameter Presolve to value 2
Set parameter RINS to value 100
Set parameter MIPGap to value 0.01
Set parameter Threads to value 36
Set parameter TimeLimit to value 259200
Set parameter IterationLimit to value 760000000
Gurobi Optimizer version 9.5.0 build v9.5.0rc5 (linux64)
Thread count: 36 physical cores, 36 logical processors, using up to 36 threads
Optimize a model with 32308 rows, 21794 columns and 87989 nonzeros
Model fingerprint: 0x2511680e
Variable types: 21773 continuous, 21 integer (21 binary)
Coefficient statistics:
  Matrix range     [6e-04, 1e+03]
  Objective range  [1e+00, 1e+00]
  Bounds range     [3e-05, 3e+00]
  RHS range        [3e-05, 3e+00]
Presolve removed 19242 rows and 11041 columns
Presolve time: 0.12s
Presolved: 13066 rows, 10753 columns, 47179 nonzeros
Variable types: 10732 continuous, 21 integer (21 binary)
Found heuristic solution: objective 82.4724685
Root relaxation presolve removed 7 rows and 7 columns
Root relaxation presolved: 13059 rows, 10746 columns, 47165 nonzeros

Root barrier log...

Ordering time: 0.00s

Barrier statistics:
 Dense cols : 21
 AA' NZ     : 8.763e+04
 Factor NZ  : 2.509e+05 (roughly 12 MB of memory)
 Factor Ops : 5.145e+06 (less than 1 second per iteration)
 Threads    : 36

                  Objective                Residual
Iter       Primal          Dual         Primal    Dual     Compl     Time
   0   6.42395150e+05 -9.98850644e+07  5.20e+00 1.79e+02  9.14e+03     0s
   1   9.29266173e+04 -2.55145726e+07  6.51e-01 3.49e-09  1.24e+03     0s
   2   3.57538729e+04 -3.83862742e+06  1.62e-01 1.09e-09  1.63e+02     0s
   3   1.64740529e+04 -3.36379235e+05  4.79e-03 4.23e-10  1.18e+01     0s
   4   5.26999738e+03 -5.25399946e+04  7.44e-05 5.56e-11  1.90e+00     0s
   5   1.71371413e+03 -1.06126716e+04  1.16e-05 1.08e-11  4.05e-01     0s
   6   6.87591720e+02 -2.77054956e+03  2.33e-06 2.98e-12  1.14e-01     0s
   7   4.11509433e+02 -8.78767110e+02  9.55e-07 1.82e-12  4.24e-02     0s
   8   1.94304421e+02 -2.80696002e+02  3.18e-07 1.82e-12  1.56e-02     0s
   9   1.30208366e+02 -8.96907940e+01  1.76e-07 9.09e-13  7.22e-03     0s
  10   7.98252512e+01 -4.81283138e+00  7.65e-08 1.36e-12  2.78e-03     0s
  11   5.80649003e+01  1.89295406e+01  3.74e-08 9.09e-13  1.29e-03     0s
  12   5.02805168e+01  2.31780573e+01  2.31e-08 9.09e-13  8.90e-04     0s
  13   4.52011500e+01  2.56661479e+01  1.40e-08 9.09e-13  6.42e-04     0s
  14   4.25249558e+01  3.09661368e+01  9.33e-09 9.09e-13  3.80e-04     0s
  15   4.07082736e+01  3.38672895e+01  6.16e-09 9.09e-13  2.25e-04     0s
  16   3.98019676e+01  3.47026075e+01  4.52e-09 9.09e-13  1.67e-04     0s
  17   3.85421154e+01  3.56622881e+01  2.42e-09 9.09e-13  9.46e-05     0s
  18   3.76924506e+01  3.64345134e+01  9.04e-10 1.82e-12  4.13e-05     0s
  19   3.74329833e+01  3.69160087e+01  4.40e-10 9.09e-13  1.70e-05     0s
  20   3.73580810e+01  3.69694014e+01  3.09e-10 9.09e-13  1.28e-05     0s
  21   3.72835571e+01  3.70035256e+01  1.84e-10 9.09e-13  9.20e-06     0s
  22   3.72593025e+01  3.70783024e+01  1.43e-10 1.82e-12  5.95e-06     0s
  23   3.72339618e+01  3.70902608e+01  1.01e-10 9.09e-13  4.72e-06     0s
  24   3.72034865e+01  3.71595028e+01  4.92e-11 1.36e-12  1.44e-06     0s
  25   3.71768525e+01  3.71706747e+01  2.61e-11 9.09e-13  2.03e-07     0s
  26   3.71745043e+01  3.71727926e+01  4.90e-11 1.82e-12  5.62e-08     1s
  27   3.71739855e+01  3.71736400e+01  5.01e-11 2.33e-12  1.13e-08     1s
  28   3.71738623e+01  3.71738090e+01  4.46e-11 3.56e-12  1.75e-09     1s
  29   3.71738389e+01  3.71738301e+01  6.51e-11 1.82e-12  2.89e-10     1s
  30   3.71738367e+01  3.71738356e+01  5.46e-10 9.09e-13  3.56e-11     1s
  31   3.71738365e+01  3.71738364e+01  6.99e-09 1.82e-12  2.22e-12     1s

Barrier solved model in 31 iterations and 0.53 seconds (0.43 work units)
Optimal objective 3.71738365e+01


Root relaxation: objective 3.717384e+01, 1815 iterations, 0.36 seconds (0.26 work units)

    Nodes    |    Current Node    |     Objective Bounds      |     Work
 Expl Unexpl |  Obj  Depth IntInf | Incumbent    BestBd   Gap | It/Node Time

     0     0   37.17384    0   13   82.47247   37.17384  54.9%     -    0s
     0     0   37.44983    0   12   82.47247   37.44983  54.6%     -    1s
H    0     0                      72.9304833   37.44995  48.6%     -    1s
H    0     0                      69.8862061   37.44995  46.4%     -    1s
     0     0   37.44995    0   12   69.88621   37.44995  46.4%     -    1s
     0     0   37.86820    0    8   69.88621   37.86820  45.8%     -    1s
     0     0   38.05114    0   10   69.88621   38.05114  45.6%     -    2s
     0     0   38.09519    0   10   69.88621   38.09519  45.5%     -    2s
     0     0   38.11318    0    9   69.88621   38.11318  45.5%     -    2s
     0     0   38.16990    0    9   69.88621   38.16990  45.4%     -    2s
H    0     0                      59.0668785   38.18176  35.4%     -    2s
     0     0   38.18176    0   10   59.06688   38.18176  35.4%     -    2s
     0     0   38.18365    0   11   59.06688   38.18365  35.4%     -    3s
H    0     0                      55.8218995   38.18365  31.6%     -    9s
     0     2   38.18365    0   11   55.82190   38.18365  31.6%     -   10s
H   28    30                      55.2264176   39.20663  29.0%   545   11s
H   97   119                      54.7811466   40.89461  25.3%   601   16s
H  102   119                      54.7405807   40.89461  25.3%   606   16s
   133   141   45.46077    8   12   54.74058   40.89461  25.3%   573   23s
   258   183     cutoff    9        54.74058   40.89461  25.3%   450   25s
  1173   226   49.99457    7    8   54.74058   46.39986  15.2%   318   31s
  1899   133   51.69986   10   10   54.74058   48.30543  11.8%   275   48s
  2042    80   53.78113   11    9   54.74058   48.30543  11.8%   267   51s

Cutting planes:
  Gomory: 2
  Implied bound: 89
  MIR: 405
  RLT: 1
  Relax-and-lift: 103

Explored 2315 nodes (584411 simplex iterations) in 52.49 seconds (72.65 work units)
Thread count was 36 (of 36 available processors)

Solution count 8: 54.7406 54.7811 55.2264 ... 82.4725

Optimal solution found (tolerance 1.00e-02)
Best objective 5.474058065672e+01, best bound 5.474058065672e+01, gap 0.0000%

Gurobi 9.5.0 (linux64) logging started Fri Dec  8 09:14:59 2023

Set parameter LogFile to value "/lustre1/scratch/348/vsc34888/JointResearch/05.Models/06.Benchmarking/F.Representative_days_based_on_Line_Benefit_NN_OC_fy_1/RTS24_mod1_ByStages_nc90/openStarNet_RTS24_mod1_ByStages_nc90.log"
Set parameter Method to value 2
Set parameter MIPFocus to value 1
Set parameter Presolve to value 2
Set parameter RINS to value 100
Set parameter MIPGap to value 0.01
Set parameter Threads to value 36
Set parameter TimeLimit to value 259200
Set parameter IterationLimit to value 760000000
No parameters matching 'relax_integrality' found
Gurobi Optimizer version 9.5.0 build v9.5.0rc5 (linux64)
Thread count: 36 physical cores, 36 logical processors, using up to 36 threads
Optimize a model with 32308 rows, 21773 columns and 80324 nonzeros
Model fingerprint: 0xf1cc8496
Coefficient statistics:
  Matrix range     [6e-04, 1e+03]
  Objective range  [1e+00, 1e+00]
  Bounds range     [3e-05, 3e+00]
  RHS range        [3e-05, 2e+01]
Presolve removed 26871 rows and 12148 columns
Presolve time: 0.04s
Presolved: 5437 rows, 9780 columns, 24625 nonzeros

Ordering time: 0.00s

Barrier statistics:
 AA' NZ     : 1.275e+04
 Factor NZ  : 4.705e+04 (roughly 5 MB of memory)
 Factor Ops : 6.458e+05 (less than 1 second per iteration)
 Threads    : 1

                  Objective                Residual
Iter       Primal          Dual         Primal    Dual     Compl     Time
   0   2.12478595e+06 -8.35009738e+07  8.13e+00 7.05e+02  4.46e+04     0s
   1   2.14359473e+05 -5.63401920e+07  7.94e-01 4.29e-11  6.55e+03     0s
   2   7.70875421e+04 -1.99308852e+07  2.70e-01 1.10e-10  1.81e+03     0s
   3   3.82978692e+04 -5.83115007e+06  8.71e-02 7.54e-11  4.50e+02     0s
   4   2.26668955e+04 -1.36193485e+06  4.47e-03 5.64e-11  8.70e+01     0s
   5   1.56968171e+04 -2.25658788e+05  5.91e-12 3.82e-11  1.49e+01     0s
   6   6.69189985e+03 -5.88818653e+04  1.71e-12 1.38e-11  4.04e+00     0s
   7   1.34193836e+03 -7.93006036e+03  2.42e-12 1.09e-11  5.72e-01     0s
   8   3.78885655e+02 -7.92820619e+02  1.69e-12 5.46e-12  7.23e-02     0s
   9   1.94875564e+02 -3.43252043e+02  7.50e-13 3.64e-12  3.32e-02     0s
  10   1.35654590e+02 -1.26928193e+02  3.43e-13 7.28e-12  1.62e-02     0s
  11   9.69488093e+01 -1.87003068e+01  5.05e-12 3.64e-12  7.13e-03     0s
  12   7.62849991e+01  2.41327766e+01  3.86e-12 3.64e-12  3.22e-03     0s
  13   6.02281443e+01  4.59209546e+01  1.54e-12 7.28e-12  8.83e-04     0s
  14   5.64722661e+01  5.31311000e+01  6.12e-13 3.64e-12  2.06e-04     0s
  15   5.53077100e+01  5.42398332e+01  2.14e-12 1.46e-11  6.59e-05     0s
  16   5.49308738e+01  5.45518052e+01  4.20e-11 3.64e-12  2.34e-05     0s
  17   5.47813855e+01  5.46807481e+01  2.28e-11 3.64e-12  6.21e-06     0s
  18   5.47465492e+01  5.47245467e+01  1.54e-11 1.46e-11  1.36e-06     0s
  19   5.47408145e+01  5.47399207e+01  4.70e-12 7.28e-12  5.51e-08     0s
  20   5.47405840e+01  5.47405743e+01  6.25e-12 2.91e-11  5.99e-10     0s
  21   5.47405807e+01  5.47405807e+01  7.64e-12 3.64e-12  5.99e-13     0s
  22   5.47405807e+01  5.47405807e+01  8.53e-13 1.09e-11  2.34e-17     0s

Barrier solved model in 22 iterations and 0.13 seconds (0.11 work units)
Optimal objective 5.47405807e+01

Crossover log...

    1203 DPushes remaining with DInf 0.0000000e+00                 0s
       0 DPushes remaining with DInf 0.0000000e+00                 0s

     310 PPushes remaining with PInf 0.0000000e+00                 0s
       0 PPushes remaining with PInf 0.0000000e+00                 0s

  Push phase complete: Pinf 0.0000000e+00, Dinf 1.1761336e-12      0s

Iteration    Objective       Primal Inf.    Dual Inf.      Time
     359    5.4740581e+01   0.000000e+00   0.000000e+00      0s

Use crossover to convert LP symmetric solution to basic solution...
Crossover log...

       0 DPushes remaining with DInf 0.0000000e+00                 0s

     230 PPushes remaining with PInf 0.0000000e+00                 0s
       0 PPushes remaining with PInf 0.0000000e+00                 0s

  Push phase complete: Pinf 0.0000000e+00, Dinf 1.4869747e-12      0s

Iteration    Objective       Primal Inf.    Dual Inf.      Time
     618    5.4740581e+01   0.000000e+00   0.000000e+00      0s

Solved in 618 iterations and 0.18 seconds (0.14 work units)
Optimal objective  5.474058066e+01
